1
1000
120
491 1
477 1
473 1
472 1
467 1
464 1
461 1
459 1
459 1
458 1
454 1
448 1
444 1
440 1
426 1
423 1
417 1
416 1
414 1
413 1
408 1
407 1
406 1
404 1
400 1
399 1
397 1
391 1
387 1
384 1
384 1
378 1
378 1
375 1
375 1
375 1
372 1
370 1
361 1
360 1
359 1
356 1
356 1
356 1
356 1
355 1
354 1
350 1
341 1
337 1
334 1
330 1
329 1
329 1
324 1
323 1
323 1
322 1
321 1
318 1
317 1
315 1
314 1
313 1
309 1
305 1
305 1
302 1
299 1
297 1
297 1
295 1
291 1
291 1
290 1
290 1
290 1
287 1
283 1
283 1
280 1
278 1
278 1
278 1
275 1
274 1
273 1
273 1
273 1
272 1
270 1
269 1
268 1
267 1
267 1
267 1
266 1
266 1
265 1
265 1
264 1
263 1
263 1
263 1
261 1
261 1
261 1
259 1
258 1
256 1
256 1
255 1
255 1
255 1
255 1
254 1
253 1
251 1
250 1
250 1
